c Lingeling SAT Solver
c 
c Version ala b02aa1a04343558c4252b5f4a723be021964f652
c 
c Copyright (C) 2010-2012 Armin Biere JKU Linz Austria.
c All rights reserved.
c 
c released Sat Oct 13 14:05:26 CEST 2012
c compiled Sat Feb 16 02:48:12 EST 2013
c 
c gcc (Debian 4.4.5-8) 4.4.5
c -Wall -O3 -DNLGLOG -DNDEBUG -DNCHKSOL -DNLGLPICOSAT 
c Linux greencar2 2.6.32-5-amd64 x86_64
c 
c reading input file pb_300_07.cnf
c no embedded options
c found 'p cnf 383542 1203265' header
c read 383542 variables, 1203265 clauses, 2508098 literals in 0.0 seconds
c
c feature vars 383542
c feature lits.total 2508098
c feature lits.pos 1333457
c feature lits.neg 1174641
c feature clauses.total 1203265
c feature clauses.unit 141108
c feature clauses.bin 847381
c feature clauses.trn 212676
c feature clauses.lrg 2100
c feature cog.val.min 1
c feature cog.val.avg 170755
c feature cog.val.max 371029
c feature cog.var.min 1
c feature cog.var.avg 191772
c feature cog.var.max 383541
c
c
c --abstime=0
c --acts=2
c --actavgmax=120
c --actstdmin=20
c --actstdmax=80
c --agile=23
c --bias=2
c --block=1
c --blkrtc=0
c --blkclslim=2000
c --blkocclim=2000
c --blkmaxeff=2147483647
c --blkmineff=10000000
c --blkreleff=20
c --card=0
c --cce=3
c --ccemaxeff=100000000
c --ccemineff=5000000
c --ccereleff=3
c --check=0
c --cgrclsr=1
c --cgrmaxority=20
c --cgrmaxeff=8000000
c --cgrmineff=200000
c --cgreleff=1
c --cgrexteq=1
c --cgrextand=1
c --cgrextunits=1
c --cgrextite=1
c --cgrextxor=1
c --cliff=1
c --cliffreleff=8
c --cliffmineff=10000000
c --cliffmaxeff=100000000
c --compact=0
c --decompose=1
c --defragint=10000000
c --defragfree=50
c --elim=1
c --elmrtc=0
c --elmblk=1
c --elmclslim=1000
c --elmocclim=1000
c --elmaxeff=100000000
c --elmineff=5000000
c --elmreleff=10
c --sleeponabort=0
c --exitonabort=0
c --flipping=1
c --flipint=2
c --flipdur=50
c --fliptop=1
c --force=0
c --gauss=1
c --gaussextrall=1
c --gaussmaxor=20
c --gaussexptrn=1
c --gaussmaxeff=50000000
c --gaussmineff=2000000
c --gaussreleff=2
c --gluescale=2
c --gluekeep=0
c --inprocessing=1
c --cintinc=10000
c --irrlim=20
c --lift=1
c --lftmaxeff=20000000
c --lftmineff=500000
c --lftreleff=6
c --lhbr=1
c --lkhd=1
c --clim=-1
c --mocint=1000
c --move=2
c --log=-1
c --otfs=1
c --phase=0
c --phaseneginit=0
c --plain=0
c --probe=1
c --prbasicmaxeff=100000000
c --prbasicmineff=1000000
c --prbasicreleff=10
c --prbasic=1
c --prbasicroundlim=9
c --queuemergelim=10000
c --queuefactor=833
c --queueinc=20
c --rmincpen=4
c --seed=0
c --smallirr=90
c --smallve=1
c --smallvevars=12
c --randec=1
c --randecint=1000
c --redfixed=0
c --redlbound=0
c --redlexpfac=10
c --redldoutfac=0
c --redloutinc=10000
c --redlinit=1000
c --redlinc=1000
c --redinoutinc=100
c --redlmininc=10
c --redlmaxinc=200
c --redlminrel=10
c --redlmaxrel=300
c --redlminabs=500
c --redlmaxabs=1000000
c --reduce=1
c --restart=2
c --restartint=5
c --rstinoutinc=110
c --simplify=1
c --simpdelay=100
c --simpen=4
c --sizepen=1000000
c --sizemaxpen=3
c --sortlits=0
c --syncint=111111
c --termint=122222
c --ternres=1
c --ternresrtc=0
c --trnrmineff=4000000
c --trnrmaxeff=40000000
c --trnreleff=10
c --transred=1
c --trdmineff=100000
c --trdmaxeff=2000000
c --trdreleff=10
c --unhide=1
c --unhdextstamp=1
c --unhdhbr=0
c --unhdmaxeff=20000000
c --unhdmineff=1000000
c --unhdreleff=4
c --unhdlnpr=3
c --unhdroundlim=5
c --verbose=1
c --witness=1
c [limits] no conflict limit
c [limits] simplification delayed by 100 to 100 conflicts
c 
c  seconds         irredundant          redundant clauses agility   height
c          variables clauses conflicts large binary ternary    glue         MB
c 
c *    0.0  217476   925003         0       0      0     0  81  0.0   0.0   79
c [cut-width] 313123, max 466512, min4 222200 at 75%, min10 48900 at 86%
c [decision-order] bias 1, old 1
c [queue-schedule-all-variables]
c s    0.0  217476   925003         0       0      0     0  81  0.0   0.0   79
c [simplification-1] limit hit at 100 conflicts
c [simplification-1] simplification penalty of 4
c [ternres-1] limit 2000000 with penalty 1 = 0 + 1
c [ternres-1] all 217476 free variables schedulable
c [ternres-1] 0 ternary resolvents (0 bin, 0 trn)
c [ternres-1] 170295 variables remain 78% (47181 retained)
c [gauss-1] limit 1000000 penalty 1 = 0 + 1
c [gauss-1] extracted 80354 xors of average arity 2.0
c [gauss-1] connected 160710 occurrences of 76435 variables (average 2.1)
c [gauss-1] limit 2000000 penalty 0 = 0 + 0
c [gauss-1] exported 0 unary, 0 binary and 0 ternary equations
c G    0.8  217476   892913       100      92      4     4  10  3.7 187.5   51
c d    1.1  101630   471045       100      92      4     4  10  3.7 187.5   40
c [basicprobe-1] limit 1000000 penalty 0 = 0 + 0
c [basicprobe-1-0] 6335 probes remain 6% after last round
c [basicprobe-1-0] removed 0 variables, found 2055 hbrs
c p    1.1  101630   471045       100      92   2059     4  10  3.7 187.5   47
c [cgrclsr-1] limit 200000 penalty 0 = 0 + 0
c [cgrclsr-1] all 101630 free variables schedulable
c [cgrclsr-1] fully completed congruence closure
c [lift-1] limit 500000 with penalty 0 = 0 + 0
c [lift-1] using 101630 probes 100%
c [lift-1] 101614 variables remain 100% (16 retained)
c [cliff-1] limit of 10000000 steps penalty 0 = 0 + 0
c [cliff-1] failed 1, lifted 0
c K    1.8  101628   471045       100      92  10221     4  10  3.7 187.5   47
c [unhide-1] limit 1000000 with penalty 0 = 0 + 0
c [unhide-1-1] 0 units, 3 failed, 48258 tauts, 0 hbrs, 90 literals
c u    2.0  101623   422777       100      92  10220     3  10  3.7 187.5   47
c [transred-1] limit 100000 with penalty 0 = 0 + 0
c t    2.0  101623   422776       100      92  10219     3  10  3.7 187.5   47
c [block-1] scheduling all variables this time
c [block-1] scheduled 101623 variables 100%
c [block-1] limit of 10000000 steps penalty 0 = 0 + 0
c [block-1] fully completed blocked clause elimination
c [block-1] transition to [ all 0 rem 0 ] state
c [block-1] eliminated 6600 blocked clauses
c k    2.3  101623   416152       100      92  10219  6603  10  3.7 187.5   40
c [cce-1] scheduling all variables this time
c [cce-1] limit of 10000000 steps penalty 0 = 0 + 0
c [cce-1] incomplete covered clause elimination 94988 not tried 93%
c [cce-1] transition to [ all 1 rem 1 ] state
c [cce-1] eliminated 146 covered clauses
c E    2.9  101595   416006       100      92  25346  6603  10  3.7 187.5   40
c [elim-1] scheduling all variables this time
c [elim-1] scheduled 101595 variables 100%
c [elim-1] limit of 5000000 steps penalty 0 = 0 + 0
c [elim-1] incomplete variable elimination 84665 not tried 83%
c [elim-1] transition to [ all 1 rem 1 ] state
c [elim-1] eliminated 8982 = 9% variables out of 101595
c e    3.9   92613   410061       100      61   9064   788  10  3.7 187.5   39
c [phase-1] phase bias: 3316 positive 9%, 34092 negative 91%
c [simplification-1] removed 124863 variables 57%
c [simplification-1] limit increments divided by 29
c [simplification-1] arithmetic increase of conflict limit interval by 344
c [simplification-1] new irredundant limit 4011141
c [simplification-1] new conflict limit 444
c [simplification-1] simplification penalty reduced to 3
c R    4.0   92613   410061       162     107   9066   802  14  4.3 158.2   47
c R    4.2   92613   410061       408     313   9077   830   7  5.1 193.9   47
c [simplification-2] limit hit at 444 conflicts
c [simplification-2] simplification penalty of 3
c [ternres-2] limit 2000000 with penalty 1 = 1 + 0
c [ternres-2] 72487 schedulable variables 78%
c [ternres-2] 7 ternary resolvents (0 bin, 7 trn)
c [ternres-2] 47217 variables remain 51% (45396 retained)
c T    4.2   92613   410061       444     336   9079   846   7  5.0 182.7   48
c [gauss-2] limit 1000000 penalty 1 = 1 + 0
c [gauss-2] extracted 375 xors of average arity 3.0
c [gauss-2] connected 1124 occurrences of 992 variables (average 1.1)
c [gauss-2] limit 1000000 penalty 1 = 1 + 0
c [gauss-2] fully completed
c [gauss-2] exported 0 unary, 0 binary and 0 ternary equations
c G    4.4   92613   410061       444     336   9079   846   7  5.0 182.7   39
c d    4.5   92611   410061       444     336   9075   845   7  5.0 182.7   39
c [basicprobe-2] limit 500000 penalty 1 = 1 + 0
c [basicprobe-2-0] 6668 probes remain 7% after last round
c [basicprobe-2-0] 1 units = 1 failed (100%) + 0 lifted (0%)
c [basicprobe-2-0] removed 2 variables, found 233 hbrs
c p    4.6   92609   410061       444     336   9308   844   7  5.0 182.7   47
c [cgrclsr-2] limit 100000 penalty 1 = 1 + 0
c [cgrclsr-2] all 92609 free variables schedulable
c [cgrclsr-2] fully completed congruence closure
c [lift-2] limit 250000 with penalty 1 = 1 + 0
c [lift-2] using 92593 probes 100%
c [lift-2] 92582 variables remain 100% (27 retained)
c [cliff-2] limit of 10000000 steps penalty 0 = 0 + 0
c [cliff-2] failed 1, lifted 0
c K    5.3   92608   410051       444     336   9611   844   7  5.0 182.7   47
c [unhide-2] limit 1000000 with penalty 0 = 0 + 0
c [unhide-2-2] 0 units, 0 failed, 3002 tauts, 0 hbrs, 177 literals
c u    5.5   92608   410039       444     332   6606   842   7  5.0 182.7   47
c [transred-3] limit 127505 based on 1020045 irredundant literals
c t    5.5   92608   410039       444     332   6605   842   7  5.0 182.7   47
c [block-2] scheduling all variables this time
c [block-2] scheduled 92608 variables 100%
c [block-2] limit of 10000000 steps penalty 0 = 0 + 0
c [block-2] fully completed blocked clause elimination
c [block-2] transition to [ all 0 rem 0 ] state
c [block-2] eliminated 0 blocked clauses
c [cce-2] 89158 variables 96% will be scheduled this time
c [cce-2] limit of 10000000 steps penalty 0 = 0 + 0
c [cce-2] 88818 variables 96% remain to be tried next time
c [cce-2] transition to [ all 0 rem 1 ] state
c [cce-2] eliminated 291 covered clauses
c E    6.2   92602   409748       444     332   6941   842   7  5.0 182.7   39
c [elim-2] 84640 variables 91% will be scheduled this time
c [elim-2] scheduled 84640 variables 91%
c [elim-2] limit of 5000000 steps penalty 0 = 0 + 0
c [elim-2] 74500 variables 80% remain to be tried next time
c [elim-2] transition to [ all 0 rem 1 ] state
c [elim-2] eliminated 1213 = 1% variables out of 92602
c e    7.2   91389   408964       444     311   4974   842   7  5.0 182.7   39
c [phase-2] phase bias: 55 positive 98%, 1 negative 2%
c [simplification-2] removed 1224 variables 1%
c [simplification-2] no reduction of limit increments
c [simplification-2] arithmetic increase of conflict limit interval by 10000
c [simplification-2] new irredundant limit 4011141
c [simplification-2] new conflict limit 10788
c [simplification-2] simplification penalty reduced to 2
c R    7.6   91389   408964       978     742   5001   911   5  7.0 162.7   47
c 
c  seconds         irredundant          redundant clauses agility   height
c          variables clauses conflicts large binary ternary    glue         MB
c 
c -    7.9   91389   408964      1364     513   5037   985   3  6.0 152.3   47
c R    8.4   91389   408964      2267    1293   5075  1063   4  7.3 150.5   48
c -    9.8   91389   408964      4415    1562   5213  1303   4  6.2 187.3   48
c R   10.0   91389   408964      5163    2293   5220  1312  10  6.9 191.8   49
c -   12.2   91389   408964      8532    2508   5444  1689   4  6.5 184.7   48
c [simplification-3] limit hit at 10791 conflicts
c [simplification-3] simplification penalty of 2
c [ternres-3] limit 4000000 with penalty 0 = 0 + 0
c [ternres-3] 46579 schedulable variables 51%
c [ternres-3] 333 ternary resolvents (1 bin, 332 trn)
c [ternres-3] 11 variables remain 0% (91378 retained)
c T   13.3   91389   408964     10791    4542   5501  2181   3  7.1 187.0   50
c [gauss-3] limit 500000 penalty 2 = 2 + 0
c [gauss-3] extracted 169 xors of average arity 3.0
c [gauss-3] connected 499 occurrences of 467 variables (average 1.1)
c [gauss-3] limit 500000 penalty 2 = 2 + 0
c [gauss-3] fully completed
c [gauss-3] exported 0 unary, 0 binary and 0 ternary equations
c G   13.4   91389   408964     10791    4542   5501  2181   3  7.1 187.0   41
c d   13.6   91373   408964     10791    4542   5468  2172   3  7.1 187.0   41
c [basicprobe-3] limit 1801885 penalty 0 = 0 + 0
c [basicprobe-3-0] 5948 probes remain 7% after last round
c [basicprobe-3-0] 4 units = 4 failed (100%) + 0 lifted (0%)
c [basicprobe-3-0] removed 19 variables, found 1839 hbrs
c p   13.7   91354   408964     10791    4542   7307  2135   3  7.1 187.0   48
c [cgrclsr-3] limit 127700 based on 1021601 irredundant literals
c [cgrclsr-3] all 91354 free variables schedulable
c [cgrclsr-3] fully completed congruence closure
c [lift-3] limit 270282 with penalty 2 = 2 + 0
c [lift-3] using 91327 probes 100%
c [lift-3] 91314 variables remain 100% (40 retained)
c [cliff-3] limit of 10000000 steps penalty 0 = 0 + 0
c [cliff-3] failed 0, lifted 0
c [unhide-3] limit 1000000 with penalty 0 = 0 + 0
c [unhide-3-3] 0 units, 2 failed, 1794 tauts, 0 hbrs, 3612 literals
c u   14.7   91352   407099     10791    4501   7586  2109   3  7.1 187.0   48
c [transred-5] limit 1801885 with penalty 0 = 0 + 0
c t   14.8   91352   407096     10791    4501   7573  2109   3  7.1 187.0   48
c [block-3] scheduling all variables this time
c [block-3] scheduled 91352 variables 100%
c [block-3] limit of 5000000 steps penalty 1 = 1 + 0
c [block-3] fully completed blocked clause elimination
c [block-3] transition to [ all 0 rem 0 ] state
c [block-3] eliminated 0 blocked clauses
c [cce-3] scheduling all variables this time
c [cce-3] limit of 10000000 steps penalty 0 = 0 + 0
c [cce-3] 87613 variables 96% remain to be tried next time
c [cce-3] transition to [ all 1 rem 1 ] state
c [cce-3] eliminated 124 covered clauses
c E   15.7   91348   406963     10791    4501  10078  2089   3  7.1 187.0   41
c [elim-3] scheduling all variables this time
c [elim-3] scheduled 91348 variables 100%
c [elim-3] limit of 5000000 steps penalty 0 = 0 + 0
c [elim-3] 68177 variables 75% remain to be tried next time
c [elim-3] transition to [ all 1 rem 1 ] state
c [elim-3] eliminated 528 = 1% variables out of 91348
c e   16.7   90820   406721     10791    4460   7653  2083   3  7.1 187.0   41
c [phase-3] phase bias: 2 positive 100%, 0 negative 0%
c [simplification-3] removed 569 variables 0%
c [simplification-3] no reduction of limit increments
c [simplification-3] arithmetic increase of conflict limit interval by 10000
c [simplification-3] new irredundant limit 4011141
c [simplification-3] new conflict limit 31135
c [simplification-3] simplification penalty reduced to 1
c R   17.0   90820   406721     11629    5290   7655  2089   6  7.8 187.5   50
c -   18.6   90820   406721     13854    3627   7814  2329   4  7.4 181.9   48
c -   22.9   90820   406721     20214    4506   8172  2896   4  7.4 181.2   49
c R   25.2   90820   406721     25837    9818   8241  3119   8  8.5 185.4   52
c -   26.3   90820   406721     27308    5501   8345  3291   4  8.4 182.8   49
c [simplification-4] limit hit at 31135 conflicts
c [simplification-4] simplification penalty of 1
c [ternres-4] limit 5042496 with penalty 0 = 0 + 0
c [ternres-4] 11 schedulable variables 0%
c [ternres-4] 11 ternary resolvents (0 bin, 11 trn)
c [ternres-4] fully completed ternary resolution
c T   28.8   90820   406721     31135    8821   8528  3591   4  8.3 182.3   51
c [gauss-4] limit 254465 based on 1017860 irredundant literals
c [gauss-4] extracted 100 xors of average arity 3.0
c [gauss-4] connected 296 occurrences of 287 variables (average 1.0)
c [gauss-4] limit 254465 based on 1017860 irredundant literals
c [gauss-4] fully completed
c [gauss-4] exported 0 unary, 0 binary and 0 ternary equations
c G   28.9   90820   406721     31135    8821   8528  3591   4  8.3 182.3   41
c d   29.1   90791   406721     31135    8801   8468  3572   4  8.3 182.3   41
c [basicprobe-4] limit 5042496 penalty 0 = 0 + 0
c [basicprobe-4-0] 3347 probes remain 4% after last round
c [basicprobe-4-0] 2 units = 2 failed (100%) + 0 lifted (0%)
c [basicprobe-4-0] removed 4 variables, found 5871 hbrs
c p   29.4   90787   406721     31135    8801  14338  3476   4  8.3 182.3   49
c [cgrclsr-4] limit 254447 based on 1017790 irredundant literals
c [cgrclsr-4] all 90787 free variables schedulable
c [cgrclsr-4] fully completed congruence closure
c [cgrclsr-4] removed 3 variables
c C   29.6   90784   406696     31135    8798  14247  3474   4  8.3 182.3   41
c [lift-4] limit 378187 with penalty 3 = 3 + 0
c [lift-4] using 90744 probes 100%
c [lift-4] 90733 variables remain 100% (51 retained)
c [cliff-4] limit of 5000000 steps penalty 1 = 1 + 0
c [cliff-4] failed 0, lifted 0
c [unhide-4] limit 2016998 with penalty 0 = 0 + 0
c [unhide-4-4] 0 units, 0 failed, 2887 tauts, 0 hbrs, 8697 literals
c 
c  seconds         irredundant          redundant clauses agility   height
c          variables clauses conflicts large binary ternary    glue         MB
c 
c u   30.2   90784   406645     31135    8638  11941  3249   4  8.3 182.3   49
c [transred-7] limit 2000000 with penalty 0 = 0 + 0
c t   30.4   90784   406631     31135    8638  11927  3249   4  8.3 182.3   50
c [block-4] scheduling all variables this time
c [block-4] scheduled 90784 variables 100%
c [block-4] limit of 2521248 steps penalty 2 = 2 + 0
c [block-4] incomplete blocked clause elimination 5761 not tried 6%
c [block-4] transition to [ all 1 rem 1 ] state
c [block-4] eliminated 0 blocked clauses
c [cce-4] 87221 variables 96% will be scheduled this time
c [cce-4] limit of 5000000 steps penalty 0 = 0 + 0
c [cce-4] 87009 variables 96% remain to be tried next time
c [cce-4] transition to [ all 0 rem 1 ] state
c [cce-4] eliminated 163 covered clauses
c E   30.9   90784   406468     31135    8638  12094  3249   4  8.3 182.3   41
c [elim-4] 68173 variables 75% will be scheduled this time
c [elim-4] scheduled 68173 variables 75%
c [elim-4] limit of 5042496 steps penalty 0 = 0 + 0
c [elim-4] 58021 variables 64% remain to be tried next time
c [elim-4] transition to [ all 0 rem 1 ] state
c [elim-4] eliminated 572 = 1% variables out of 90784
c e   32.0   90212   406325     31135    8559  11580  3249   4  8.3 182.3   41
c [simplification-4] removed 608 variables 0%
c [simplification-4] no reduction of limit increments
c [simplification-4] arithmetic increase of conflict limit interval by 10000
c [simplification-4] new irredundant limit 4011141
c [simplification-4] new conflict limit 61479
c [simplification-4] simplification penalty reduced to 0
c -   35.9   90212   406325     36445    6749  11797  3648   3  8.5 180.0   50
c -   43.4   90212   406325     45888    7534  12221  4284   5  8.9 179.6   49
c -   48.0   90212   406325     55986    8744  12306  4498   7 10.7 184.7   50
c R   48.3   90212   406325     56782    9524  12311  4508   6 10.8 185.8   51
c [simplification-5] limit hit at 61479 conflicts
c [simplification-5] no simplification penalty
c [ternres-5] limit 10291267 with penalty 0 = 0 + 0
c [ternres-5] all 90212 free variables schedulable
c [ternres-5] 685 ternary resolvents (11 bin, 674 trn)
c [ternres-5] fully completed ternary resolution
c T   52.8   90212   406325     61479   13682  12511  5503   6 10.7 184.4   52
c [gauss-5] limit 509473 based on 1018947 irredundant literals
c [gauss-5] extracted 182 xors of average arity 3.0
c [gauss-5] connected 539 occurrences of 420 variables (average 1.3)
c [gauss-5] limit 509473 based on 1018947 irredundant literals
c [gauss-5] fully completed
c [gauss-5] exported 0 unary, 0 binary and 0 ternary equations
c G   53.0   90212   406325     61479   13682  12511  5503   6 10.7 184.4   42
c d   53.1   90193   406325     61479   13663  12473  5490   6 10.7 184.4   42
c [basicprobe-5] limit 10291267 penalty 0 = 0 + 0
c [basicprobe-5-0] 3282 sched 4%, 6 failed, 0 lifted, 9462 hbrs
c [basicprobe-5-1] 5785 probes remain 6% after last round
c [basicprobe-5-1] 7 units = 7 failed (100%) + 0 lifted (0%)
c [basicprobe-5-1] removed 12 variables, found 11066 hbrs
c p   54.0   90181   406277     61479   13661  22831  5259   6 10.7 184.4   51
c [cgrclsr-5] limit 509403 based on 1018806 irredundant literals
c [cgrclsr-5] all 90181 free variables schedulable
c [cgrclsr-5] fully completed congruence closure
c [lift-5] limit 385922 with penalty 4 = 4 + 0
c [lift-5] using 90131 probes 100%
c [lift-5] 90113 variables remain 100% (68 retained)
c [cliff-5] limit of 2500000 steps penalty 2 = 2 + 0
c [cliff-5] failed 0, lifted 0
c [unhide-5] limit 4116506 with penalty 0 = 0 + 0
c [unhide-5-6] 0 units, 0 failed, 4602 tauts, 0 hbrs, 23444 literals
c u   55.2   90181   405054     61479   13500  20193  4803   6 10.7 184.4   51
c [transred-9] limit 2000000 with penalty 0 = 0 + 0
c t   55.3   90181   405048     61479   13500  20175  4803   6 10.7 184.4   51
c [block-5] 5761 variables 6% will be scheduled this time
c [block-5] scheduled 5761 variables 6%
c [block-5] limit of 2572816 steps penalty 3 = 3 + 0
c [block-5] fully completed blocked clause elimination
c [block-5] transition to [ all 0 rem 0 ] state
c [block-5] eliminated 0 blocked clauses
c [cce-5] scheduling all variables this time
c [cce-5] limit of 10000000 steps penalty 0 = 0 + 0
c [cce-5] 86325 variables 96% remain to be tried next time
c [cce-5] transition to [ all 1 rem 1 ] state
c [cce-5] eliminated 106 covered clauses
c E   56.0   90181   404942     61479   13500  20792  4790   6 10.7 184.4   42
c [elim-5] scheduling all variables this time
c [elim-5] scheduled 90181 variables 100%
c [elim-5] limit of 10291267 steps penalty 0 = 0 + 0
c [elim-5] 55319 variables 61% remain to be tried next time
c [elim-5] transition to [ all 1 rem 1 ] state
c [elim-5] eliminated 413 = 0% variables out of 90181
c e   57.9   89768   404691     61479   12958  18398  4746   6 10.7 184.4   42
c [simplification-5] removed 444 variables 0%
c [simplification-5] no reduction of limit increments
c [simplification-5] arithmetic increase of conflict limit interval by 10000
c [simplification-5] new irredundant limit 4011141
c [simplification-5] new conflict limit 101823
c -   63.4   89768   404691     68346    9764  18630  5103   5 10.8 182.3   50
c -   73.9   89768   404691     81042   10955  18982  5820   6 11.0 181.5   50
c -   84.9   89768   404691     94284   11590  19331  6435   5 11.2 179.3   50
c [simplification-6] limit hit at 101823 conflicts
c [simplification-6] no simplification penalty
c [ternres-6] limit 18933214 with penalty 0 = 0 + 0
c [ternres-6] all 89768 free variables schedulable
c [ternres-6] 247 ternary resolvents (2 bin, 245 trn)
c [ternres-6] fully completed ternary resolution
c T   92.1   89768   404691    101823   18395  19584  7132   4 11.1 177.7   54
c [gauss-6] limit 508317 based on 1016634 irredundant literals
c [gauss-6] extracted 172 xors of average arity 3.0
c [gauss-6] connected 512 occurrences of 477 variables (average 1.1)
c [gauss-6] limit 508317 based on 1016634 irredundant literals
c [gauss-6] fully completed
c [gauss-6] exported 0 unary, 0 binary and 0 ternary equations
c G   92.3   89768   404691    101823   18395  19584  7132   4 11.1 177.7   43
c d   92.5   89755   404691    101823   18384  19558  7123   4 11.1 177.7   43
c [basicprobe-6] limit 18933214 penalty 0 = 0 + 0
c [basicprobe-6-0] 5879 sched 7%, 1 failed, 0 lifted, 10184 hbrs
c [basicprobe-6-1] 4625 probes remain 5% after last round
c [basicprobe-6-1] 1 units = 1 failed (100%) + 0 lifted (0%)
c [basicprobe-6-1] removed 6 variables, found 11067 hbrs
c p   93.8   89749   404682    101823   18376  30591  6756   4 11.1 177.7   52
c [cgrclsr-6] limit 508303 based on 1016607 irredundant literals
c [cgrclsr-6] all 89749 free variables schedulable
c [cgrclsr-6] fully completed congruence closure
c [cgrclsr-6] removed 1 variables
c 
c  seconds         irredundant          redundant clauses agility   height
c          variables clauses conflicts large binary ternary    glue         MB
c 
c C   94.1   89748   404682    101823   18375  30589  6755   4 11.1 177.7   43
c [lift-6] limit 709995 with penalty 4 = 4 + 0
c [lift-6] using 89680 probes 100%
c [lift-6] 89647 variables remain 100% (101 retained)
c [cliff-6] limit of 2033214 steps based on 1016607 irredundant literals
c [cliff-6] failed 0, lifted 0
c [unhide-6] limit 7573285 with penalty 0 = 0 + 0
c [unhide-6-10] 0 units, 0 failed, 7454 tauts, 0 hbrs, 46146 literals
c u   95.7   89748   403829    101823   18032  24952  6161   4 11.1 177.7   52
c [transred-11] limit 2000000 with penalty 0 = 0 + 0
c t   95.8   89748   403823    101823   18032  24933  6161   4 11.1 177.7   52
c [block-6] scheduling all variables this time
c [block-6] scheduled 89748 variables 100%
c [block-6] limit of 2366651 steps penalty 4 = 4 + 0
c [block-6] incomplete blocked clause elimination 8079 not tried 9%
c [block-6] transition to [ all 1 rem 1 ] state
c [block-6] eliminated 0 blocked clauses
c [cce-6] 86076 variables 96% will be scheduled this time
c [cce-6] limit of 5679964 steps penalty 0 = 0 + 0
c [cce-6] 85851 variables 96% remain to be tried next time
c [cce-6] transition to [ all 0 rem 1 ] state
c [cce-6] eliminated 192 covered clauses
c E   96.4   89748   403631    101823   18032  25560  6161   4 11.1 177.7   43
c [elim-6] 55318 variables 62% will be scheduled this time
c [elim-6] scheduled 55318 variables 62%
c [elim-6] limit of 18933214 steps penalty 0 = 0 + 0
c [elim-6] 22879 variables 25% remain to be tried next time
c [elim-6] transition to [ all 0 rem 1 ] state
c [elim-6] eliminated 777 = 1% variables out of 89748
c e   99.9   88971   403505    101823   16716  19622  6009   4 11.1 177.7   42
c [simplification-6] removed 797 variables 0%
c [simplification-6] no reduction of limit increments
c [simplification-6] arithmetic increase of conflict limit interval by 10000
c [simplification-6] new irredundant limit 4011141
c [simplification-6] new conflict limit 152167
c -  105.1   88971   403505    110783   12939  19696  6219   5 11.8 178.7   51
c R  112.2   88971   403505    123848   25931  19706  6278   5 13.4 179.2   64
c -  113.7   88971   403505    125093   13501  19771  6380   3 13.3 178.5   50
c 1  122.6   88971   403505    134984   22676  19986  6853   7 13.2 176.4   54
c 
c  seconds         irredundant          redundant clauses agility   height
c          variables clauses conflicts large binary ternary    glue         MB
c 
c blkd: 6 bces, 6600 removed, 5642614 resolutions, 15585706 steps
c blkd: 6600 blocking literals 1%, 0 pure
c cces: 6 cces, 857 eliminated, 857 ate 100%, 0 abce 0%
c cces: 29666 probed, 6 lifted, 25 failed
c clff: 6 cliffs, 0 lifted, 2 failed
c clff: 11346 decisions, 39608171 steps
c clls: 1 sat, 0 simp, 0 freeze, 0 melt
c clls: 3711363 add, 0 assume,, 0 deref, 0 failed
c clls: 0 cassume, 0 mosat
c coll: 41 gcs, 0 rescored clauses
c cgrs: 6 count, 1699879 esteps, 268045 csteps
c cgrs: 4 eqs, 0 units
c cgrs: 0 matched (0 ands 0%, 0 xors 0%, 0 ites 0%)
c cgrs: 0 simplified (0 ands 0%, 0 xors 0%, 0 ites 0%)
c cgrs: 4392 extracted (4013 ands 91%, 379 xors 9%, 0 ites 0%)
c dcps: 8 decompositions, 115937 equivalent 30%
c decs: 1507235 decision, 1500 random 0.100%
c decs: 369446 flipped 24.512% (in 633 phases)
c elms: 6 elims, 12485 eliminated 3%
c elms: 12485 small 100%, 0 large 0%
c elms: 104273 tried small, 12485 succeeded 12%, 91788 failed 88%
c elms: 2 subsumed, 0 strengthened, 0 blocked
c elms: 1592728 copies, 1047953 resolutions, 3215089 ipos
c elms: 4 subchks, 0 strchks
c frcs: 0 computed, 12.0 - 88.0 average min-cut range
c gaus: 6 extractions, 81352 extracted, 2.0 size, 3 max
c gaus: exported 0 units, 0 binary and 0 ternary equations
c gaus: 0 gc, 7544718 steps, 3772359 extr 50%, 2101801 elim 28%
c glue: 13.2 avg, 3.5 scaled avg
c glue: 31 maxredglue=15 (0%)
c lift: 6 phases, 612 probed (204 level1 33%, 408 level2 67%)
c lift: 0 units, 0 equivalences, 0 implications
c hbrs: 61015 hbrs = 61015 trn 100% + 0 lrg 0%, 779 sub 1%
c lrnd: 134403 clauses, 80836 uips 60%, 71.7 length, 13.2 glue
c ints: 4606 luby (884242 steps), 0 inout (0 steps)
c mins: 9632578 learned lits, 15% minimized
c move: moved 7457, 857 binary 11%, 6600 ternary 89%
c otfs: str 4898 dyn (4675 red, 223 irr) 581 drv 12%, 4317 rst 88%
c otfs: sub 14 dyn (14 red, 0 irr)
c phas: 3 computed, 37606 set, 3373 pos (9%), 34233 neg (91%)
c prbs: 6 basic, 33569 probed, 15 failed, 0 lifted
c prps: 447782014 props, 282 props/dec
c prps: 95% srch, 5% simp, 0% lkhd
c psns: 44475762 searches, 6744623 hits, 15% hit rate
c queu: 951773 new, 347093 del, 120 maximum priority
c queu: 604657 merged, 597692 collected, 64 gcs
c queu: 139301 deprioritized, 37.0 lines on average
c reds: 14 count, 0 reset, 13 acts 93%, 0 exp 0%
c reds: 14 arithmetic 100%, 14 double 100%
c rmbd: 220 removed, 66 red 30%
c rsts: 4465 restarts 97%, 140 skipped 3%
c rsts: 555 kept 12.4% average 34.7%
c simp: 6 count (0 ilim 0%, 0 plim 0%, 6 clim 100%)
c trnr: 6 count, 14 bin, 1269 trn, 24777949 steps
c tops: 166149 fixed 43%, 0 iterations
c trds: 12 transitive reductions, 96 removed, 0 failed
c trds: 5574 nodes, 7289 edges, 8045366 steps
c unhd: 6 count, 10 rounds, 22090804 steps
c unhd: 28 non-trivial sccs of average size 2.0
c unhd: 0 units, 0 bin, 0 trn, 0 lrg
c unhd: 5 failed, 5 stamp, 0 lits, 0 bin, 0 trn, 0 lrg
c unhd: 67997 tauts, 69 bin 0%, 2814 trn 4%, 503 lrg 1%
c unhd: 67997 tauts, 64611 stamp 95%, 16008 red 24%
c unhd: 0 hbrs, 0 trn 0%, 0 lrg 0%, 0 red 0%
c unhd: 82166 strd, 0 bin 0%, 95 trn 0%, 82071 lrg 100%, 82159 red 100%
c vars: 88971 remaining 23% and 294571 removed 77% out of 383542
c vars: 166149 fixed 43%, 12485 eliminated 3%, 115937 equivalent 30%
c vsts: 2548793111 visits, 96% srch, 4% simp, 0% lkhd
c vsts: 5.7 search visits per propagation 18089.0 per conflict
c wchs: 125110469 pushed, 17722111 enlarged, 67 defrags
c 
c scaledglue  added       reduced       forcing      resolved     conflicts
c 
c all    123496 100     97867 100   3897330 100    591041 100     39138 100
c 
c  0          0   0         0   0         0   0         0   0         0   0 
c  1        560   0       407   0     39556   1      2116   0       112   0 
c  2      27889  23     19956  20   2523941  65<   220036  37     15026  38 
c  3      40491  33     27925  29   1105923  28    220682  37<    14987  38<
c  4      24256  20<    21702  22<   146026   4     75209  13      4727  12 
c  5      13072  11     12016  12     41896   1     33115   6      2064   5 
c  6       6999   6      6352   6     17151   0     16454   3       944   2 
c  7       4310   3      3933   4     10479   0     10137   2       538   1 
c  8       2904   2      2752   3      6346   0      6577   1       362   1 
c  9       1468   1      1390   1      2833   0      3251   1       177   0 
c 10        891   1       835   1      1972   0      2075   0       115   0 
c 11        427   0       408   0       849   0       989   0        51   0 
c 12        163   0       158   0       248   0       323   0        30   0 
c 13         31   0        29   0        36   0        55   0         5   0 
c 14          4   0         4   0        43   0         8   0         0   0 
c 15         31   0         0   0        31   0        14   0         0   0 
c 
c avg             3.8           3.9           2.4           3.1           3.1
c std             1.8           1.8           0.8           1.4           1.4
c 
c 1507235 decisions, 134984 conflicts, 1101.1 conflicts/sec
c 447782014 propagations, 3.7 megaprops/sec
c 122.6 seconds, 92.4 MB
c 
c   16.461  13% analysis
c    1.556   1% block
c    1.488   1% bump
c    0.000   0% card
c    2.616   2% cce
c    1.376   1% cliff
c    0.024   0% cutwidth
c    1.324   1% decide
c    0.000   0% force
c    3.396   3% gc
c    1.500   1% cgrclsr
c    1.700   1% decomp
c    0.892   1% defrag
c    9.533   8% elim
c    1.352   1% gauss
c    1.012   1% lift
c    3.416   3% mincls
c    0.136   0% phase
c    2.676   2% probe
c    0.184   0% reduce
c    3.448   3% restart
c    0.340   0% ternres
c    0.580   0% transred
c    2.776   2% unhide
c ==================================
c    0.028   0% preprocessing     0%
c   27.126  22% inprocessing    100%
c ==================================
c   27.154  22% simplifying
c    0.000   0% lookahead
c   95.426  78% search
c ==================================
c  122.596 100% all
c
s SATISFIABLE
